NAME 
ROWS
 N  OBJ
 L  R0      
 E  R1      
 E  R2      
 E  R3      
 E  R4      
 E  R5      
 E  R6      
 E  R7      
 E  R8      
 E  R9      
 E  R10     
 E  R11     
 E  R12     
 E  R13     
 E  R14     
 E  R15     
 E  R16     
 E  R17     
 E  R18     
 E  R19     
 E  R20     
 E  R21     
 E  R22     
 E  R23     
 E  R24     
 E  R25     
 E  R26     
 E  R27     
 E  R28     
 E  R29     
 E  R30     
COLUMNS
    MARKER    'MARKER'                 'INTORG'
    I0(3)     OBJ       -200
    I0(3)     R0        -73
    I0(3)     R1        10
    I0(3)     R30       1
    I1(3)     OBJ       -149
    I1(3)     R0        98
    I1(3)     R2        18
    I1(3)     R30       1
    I2(3)     OBJ       137
    I2(3)     R0        -23
    I2(3)     R3        19
    I2(3)     R30       1
    I3(3)     OBJ       147
    I3(3)     R0        190
    I3(3)     R4        9
    I3(3)     R30       1
    I4(3)     OBJ       120
    I4(3)     R0        -153
    I4(3)     R5        -1
    I4(3)     R30       1
    I5(3)     OBJ       90
    I5(3)     R0        72
    I5(3)     R6        17
    I5(3)     R30       1
    I6(3)     OBJ       148
    I6(3)     R0        93
    I6(3)     R7        16
    I6(3)     R30       1
    I7(3)     OBJ       8
    I7(3)     R0        197
    I7(3)     R8        15
    I7(3)     R30       1
    I8(3)     OBJ       36
    I8(3)     R0        170
    I8(3)     R9        6
    I8(3)     R30       1
    I9(3)     OBJ       -43
    I9(3)     R0        -178
    I9(3)     R10       18
    I9(3)     R30       1
    I10(3)    OBJ       -194
    I10(3)    R0        -146
    I10(3)    R11       15
    I10(3)    R30       1
    I11(3)    OBJ       14
    I11(3)    R0        -188
    I11(3)    R12       10
    I11(3)    R30       1
    I12(3)    OBJ       102
    I12(3)    R0        -46
    I12(3)    R13       17
    I12(3)    R30       1
    I13(3)    OBJ       19
    I13(3)    R0        -178
    I13(3)    R14       10
    I13(3)    R30       1
    I14(3)    OBJ       84
    I14(3)    R0        -70
    I14(3)    R15       7
    I14(3)    R30       1
    I15(3)    OBJ       31
    I15(3)    R0        -11
    I15(3)    R16       15
    I15(3)    R30       1
    I16(3)    OBJ       114
    I16(3)    R0        164
    I16(3)    R17       2
    I16(3)    R30       1
    I17(3)    OBJ       -96
    I17(3)    R0        -51
    I17(3)    R18       1
    I17(3)    R30       1
    I18(3)    OBJ       -57
    I18(3)    R0        156
    I18(3)    R19       11
    I18(3)    R30       1
    I19(3)    OBJ       -170
    I19(3)    R0        191
    I19(3)    R20       -1
    I19(3)    R30       1
    I20(2)    OBJ       -134
    I20(2)    R0        91
    I20(2)    R30       1
    I21(3)    OBJ       -182
    I21(3)    R0        -150
    I21(3)    R22       3
    I21(3)    R30       1
    I22(3)    OBJ       -182
    I22(3)    R0        -133
    I22(3)    R23       2
    I22(3)    R30       1
    I23(3)    OBJ       34
    I23(3)    R0        187
    I23(3)    R24       8
    I23(3)    R30       1
    I24(3)    OBJ       -179
    I24(3)    R0        20
    I24(3)    R25       10
    I24(3)    R30       1
    I25(3)    OBJ       81
    I25(3)    R0        -185
    I25(3)    R26       18
    I25(3)    R30       1
    I26(3)    OBJ       -108
    I26(3)    R0        54
    I26(3)    R27       15
    I26(3)    R30       1
    I27(3)    OBJ       -82
    I27(3)    R0        -40
    I27(3)    R28       19
    I27(3)    R30       1
    MARKER    'MARKER'                 'INTEND'
    C28(29)   OBJ       -8
    C28(29)   R0        -8
    C28(29)   R1        5
    C28(29)   R2        12
    C28(29)   R3        1
    C28(29)   R4        2
    C28(29)   R5        3
    C28(29)   R6        11
    C28(29)   R7        2
    C28(29)   R8        2
    C28(29)   R9        3
    C28(29)   R10       18
    C28(29)   R11       4
    C28(29)   R12       8
    C28(29)   R13       9
    C28(29)   R14       11
    C28(29)   R15       4
    C28(29)   R16       -1
    C28(29)   R17       16
    C28(29)   R18       16
    C28(29)   R19       7
    C28(29)   R20       -1
    C28(29)   R21       -1
    C28(29)   R22       3
    C28(29)   R23       7
    C28(29)   R24       18
    C28(29)   R26       17
    C28(29)   R27       1
    C28(29)   R28       6
    C28(29)   R29       9
    C29(28)   OBJ       3
    C29(28)   R0        7
    C29(28)   R1        13
    C29(28)   R4        11
    C29(28)   R5        14
    C29(28)   R6        13
    C29(28)   R7        13
    C29(28)   R8        -1
    C29(28)   R9        -1
    C29(28)   R10       16
    C29(28)   R11       4
    C29(28)   R12       8
    C29(28)   R13       15
    C29(28)   R14       9
    C29(28)   R15       5
    C29(28)   R16       11
    C29(28)   R17       5
    C29(28)   R18       6
    C29(28)   R19       16
    C29(28)   R20       1
    C29(28)   R21       3
    C29(28)   R22       15
    C29(28)   R23       4
    C29(28)   R24       -1
    C29(28)   R25       19
    C29(28)   R26       2
    C29(28)   R27       12
    C29(28)   R28       13
    C29(28)   R29       -1
    C30(1)    R1        1
    C31(1)    R2        1
    C32(1)    R3        1
    C33(1)    R4        1
    C34(1)    R5        1
    C35(1)    R6        1
    C36(1)    R7        1
    C37(1)    R8        1
    C38(1)    R9        1
    C39(1)    R10       1
    C40(1)    R11       1
    C41(1)    R12       1
    C42(1)    R13       1
    C43(1)    R14       1
    C44(1)    R15       1
    C45(1)    R16       1
    C46(1)    R17       1
    C47(1)    R18       1
    C48(1)    R19       1
    C49(1)    R20       1
    C50(1)    R21       1
    C51(1)    R22       1
    C52(1)    R23       1
    C53(1)    R24       1
    C54(1)    R25       1
    C55(1)    R26       1
    C56(1)    R27       1
    C57(1)    R28       1
    C58(1)    R29       1
    C59(1)    R30       1
RHS
    RHS1      R0        -72
    RHS1      R1        97
    RHS1      R2        73
    RHS1      R3        90
    RHS1      R4        78
    RHS1      R5        97
    RHS1      R6        69
    RHS1      R7        72
    RHS1      R8        75
    RHS1      R9        61
    RHS1      R10       80
    RHS1      R11       62
    RHS1      R12       95
    RHS1      R13       95
    RHS1      R14       52
    RHS1      R15       77
    RHS1      R16       64
    RHS1      R17       90
    RHS1      R18       95
    RHS1      R19       79
    RHS1      R20       80
    RHS1      R21       92
    RHS1      R22       50
    RHS1      R23       98
    RHS1      R24       54
    RHS1      R25       66
    RHS1      R26       97
    RHS1      R27       98
    RHS1      R28       51
    RHS1      R29       80
    RHS1      R30       9
BOUNDS
 UP BND1      I0(3)     1
 UP BND1      I1(3)     1
 UP BND1      I2(3)     1
 UP BND1      I3(3)     1
 UP BND1      I4(3)     1
 UP BND1      I5(3)     1
 UP BND1      I6(3)     1
 UP BND1      I7(3)     1
 UP BND1      I8(3)     1
 UP BND1      I9(3)     1
 UP BND1      I10(3)    1
 UP BND1      I11(3)    1
 UP BND1      I12(3)    1
 UP BND1      I13(3)    1
 UP BND1      I14(3)    1
 UP BND1      I15(3)    1
 UP BND1      I16(3)    1
 UP BND1      I17(3)    1
 UP BND1      I18(3)    1
 UP BND1      I19(3)    1
 UP BND1      I20(2)    1
 UP BND1      I21(3)    1
 UP BND1      I22(3)    1
 UP BND1      I23(3)    1
 UP BND1      I24(3)    1
 UP BND1      I25(3)    1
 UP BND1      I26(3)    1
 UP BND1      I27(3)    1
ENDATA
